32      4       
19      19      20      20      
0       0       0       0       0       1       2       
10      19      19      13      20      1       3       
2       18      19      20      20      1       4       
8       19      6       19      8       2       5       8       
1       19      19      20      11      1       6       
10      11      19      11      20      1       7       
5       11      15      20      17      1       9       
1       19      19      20      19      1       9       
9       13      19      10      20      2       10      15      
8       15      19      19      19      1       11      
4       19      19      15      20      2       12      25      
3       19      19      14      20      1       13      
3       19      19      20      20      1       14      
5       19      19      14      20      1       16      
1       19      19      20      14      1       16      
9       19      19      20      20      1       17      
3       19      16      20      20      2       18      23      
1       19      16      10      20      2       19      20      
9       19      19      19      20      1       21      
6       19      18      20      7       1       21      
9       19      19      20      8       1       22      
7       19      19      20      20      1       24      
5       19      5       16      20      1       24      
5       18      8       20      20      2       26      27      
8       19      19      20      20      2       26      27      
9       3       19      20      20      1       28      
3       19      17      20      20      1       28      
6       19      19      20      17      1       29      
4       18      13      20      20      1       30      
7       7       19      20      20      1       31      
5       19      19      20      20      1       32      
0       0       0       0       0       0       
